&CONTROL
    pseudo_dir = "C:\Users\didar\.burai\.pseudopot"
/

&SYSTEM
    a     =  5.34587e+00
    b     =  3.15856e+00
    c     =  5.31894e+00
    cosac = -3.23174e-01
    ibrav = -12
    nat   = 8
    ntyp  = 5
/

ATOMIC_SPECIES
Fe     55.84500  Fe.pz-spn-kjpaw_psl.0.2.1.UPF
Fe3    55.84500  Fe.pz-spn-kjpaw_psl.0.2.1.UPF
Fe4    55.84500  Fe.pz-spn-kjpaw_psl.0.2.1.UPF
Fe5    55.84500  Fe.pz-spn-kjpaw_psl.0.2.1.UPF
O      15.99940  O.pz-n-kjpaw_psl.0.1.UPF

ATOMIC_POSITIONS {angstrom}
Fe      0.000000   0.000000   0.000000
Fe3     1.813475   0.000000   2.516768
Fe4     2.672934   1.579280   0.000000
Fe5    -0.859459   1.579280   2.516768
O       3.687200   0.000000   1.266812
O      -0.060250   0.000000   3.766723
O       1.014266   1.579280   1.266812
O       2.612684   1.579280   3.766723


