&BANDS
  prefix = 'pwscf'
  outdir = './'
  filband = 'FeO_bands.dat'
/