 &projwfc
    outdir='./'
    prefix='pwscf'
    lsym=.true.
    filproj = 'pdos'
 /

