&inputhp
   prefix = 'FeO'
   !outdir = './'
   nq1 = 1, nq2 = 1, nq3 = 1
/
